(set-option :produce-models true)
(set-logic QF_LRA)
(set-info :notes | Strip-packing problem.|)
(declare-fun x0 () Real)
(declare-fun y0 () Real)
(declare-fun x1 () Real)
(declare-fun y1 () Real)
(declare-fun x2 () Real)
(declare-fun y2 () Real)
(declare-fun x3 () Real)
(declare-fun y3 () Real)
(declare-fun x4 () Real)
(declare-fun y4 () Real)
(declare-fun x5 () Real)
(declare-fun y5 () Real)
(declare-fun x6 () Real)
(declare-fun y6 () Real)
(declare-fun x7 () Real)
(declare-fun y7 () Real)
(declare-fun x8 () Real)
(declare-fun y8 () Real)
(declare-fun x9 () Real)
(declare-fun y9 () Real)
(declare-fun x10 () Real)
(declare-fun y10 () Real)
(declare-fun x11 () Real)
(declare-fun y11 () Real)
(declare-fun x12 () Real)
(declare-fun y12 () Real)
(declare-fun x13 () Real)
(declare-fun y13 () Real)
(declare-fun x14 () Real)
(declare-fun y14 () Real)
(declare-fun z () Real)
(declare-fun c () Real)
(assert (and (= c z) (and (>= x0 0) 
(and (>= y0 0) 
(and (>= x1 0) 
(and (>= y1 0) 
(and (>= x2 0) 
(and (>= y2 0) 
(and (>= x3 0) 
(and (>= y3 0) 
(and (>= x4 0) 
(and (>= y4 0) 
(and (>= x5 0) 
(and (>= y5 0) 
(and (>= x6 0) 
(and (>= y6 0) 
(and (>= x7 0) 
(and (>= y7 0) 
(and (>= x8 0) 
(and (>= y8 0) 
(and (>= x9 0) 
(and (>= y9 0) 
(and (>= x10 0) 
(and (>= y10 0) 
(and (>= x11 0) 
(and (>= y11 0) 
(and (>= x12 0) 
(and (>= y12 0) 
(and (>= x13 0) 
(and (>= y13 0) 
(and (>= x14 0) 
(and (>= y14 0) 
(and (>= z 0) 
(and (>= c 0) 
(and (<= (+ x0 0.215727458) z) 
(and (<= 0.9305003083 y0) 
(and (<= y0 1.0) 
(and (<= x0 (- 4.116419093 0.215727458)) 
(and (>= x0 0) 
(and (<= (+ x1 0.5314622706) z) 
(and (<= 0.8720427758 y1) 
(and (<= y1 1.0) 
(and (<= x1 (- 4.116419093 0.5314622706)) 
(and (>= x1 0) 
(and (<= (+ x2 0.6366138106) z) 
(and (<= 0.8327757909 y2) 
(and (<= y2 1.0) 
(and (<= x2 (- 4.116419093 0.6366138106)) 
(and (>= x2 0) 
(and (<= (+ x3 0.022816035) z) 
(and (<= 0.7945148373 y3) 
(and (<= y3 1.0) 
(and (<= x3 (- 4.116419093 0.022816035)) 
(and (>= x3 0) 
(and (<= (+ x4 0.9291910729) z) 
(and (<= 0.5654122463 y4) 
(and (<= y4 1.0) 
(and (<= x4 (- 4.116419093 0.9291910729)) 
(and (>= x4 0) 
(and (<= (+ x5 0.753750229) z) 
(and (<= 0.5543142088 y5) 
(and (<= y5 1.0) 
(and (<= x5 (- 4.116419093 0.753750229)) 
(and (>= x5 0) 
(and (<= (+ x6 0.2718207486) z) 
(and (<= 0.5420550507 y6) 
(and (<= y6 1.0) 
(and (<= x6 (- 4.116419093 0.2718207486)) 
(and (>= x6 0) 
(and (<= (+ x7 0.681559655) z) 
(and (<= 0.5170314614 y7) 
(and (<= y7 1.0) 
(and (<= x7 (- 4.116419093 0.681559655)) 
(and (>= x7 0) 
(and (<= (+ x8 0.0734778133) z) 
(and (<= 0.5050821216 y8) 
(and (<= y8 1.0) 
(and (<= x8 (- 4.116419093 0.0734778133)) 
(and (>= x8 0) 
(and (<= (+ x9 0.4950850306) z) 
(and (<= 0.4716500334 y9) 
(and (<= y9 1.0) 
(and (<= x9 (- 4.116419093 0.4950850306)) 
(and (>= x9 0) 
(and (<= (+ x10 0.2900206357) z) 
(and (<= 0.302750122 y10) 
(and (<= y10 1.0) 
(and (<= x10 (- 4.116419093 0.2900206357)) 
(and (>= x10 0) 
(and (<= (+ x11 0.439564734) z) 
(and (<= 0.2557160343 y11) 
(and (<= y11 1.0) 
(and (<= x11 (- 4.116419093 0.439564734)) 
(and (>= x11 0) 
(and (<= (+ x12 0.7439121829) z) 
(and (<= 0.1385137008 y12) 
(and (<= y12 1.0) 
(and (<= x12 (- 4.116419093 0.7439121829)) 
(and (>= x12 0) 
(and (<= (+ x13 0.6296116037) z) 
(and (<= 0.1195863932 y13) 
(and (<= y13 1.0) 
(and (<= x13 (- 4.116419093 0.6296116037)) 
(and (>= x13 0) 
(and (<= (+ x14 0.1571083785) z) 
(and (<= 0.0201546987 y14) 
(and (<= y14 1.0) 
(and (<= x14 (- 4.116419093 0.1571083785)) 
(and (>= x14 0) 
(and (<= c 4.116419093) 
(and (or (<= (+ x0 0.215727458) x1) (or (<= (+ x1 0.5314622706) x0) (or (>= (- y0 0.9305003083) y1) (or (>= (- y1 0.8720427758) y0))))) 
(and (or (<= (+ x0 0.215727458) x2) (or (<= (+ x2 0.6366138106) x0) (or (>= (- y0 0.9305003083) y2) (or (>= (- y2 0.8327757909) y0))))) 
(and (or (<= (+ x0 0.215727458) x3) (or (<= (+ x3 0.022816035) x0) (or (>= (- y0 0.9305003083) y3) (or (>= (- y3 0.7945148373) y0))))) 
(and (or (<= (+ x0 0.215727458) x4) (or (<= (+ x4 0.9291910729) x0) (or (>= (- y0 0.9305003083) y4) (or (>= (- y4 0.5654122463) y0))))) 
(and (or (<= (+ x0 0.215727458) x5) (or (<= (+ x5 0.753750229) x0) (or (>= (- y0 0.9305003083) y5) (or (>= (- y5 0.5543142088) y0))))) 
(and (or (<= (+ x0 0.215727458) x6) (or (<= (+ x6 0.2718207486) x0) (or (>= (- y0 0.9305003083) y6) (or (>= (- y6 0.5420550507) y0))))) 
(and (or (<= (+ x0 0.215727458) x7) (or (<= (+ x7 0.681559655) x0) (or (>= (- y0 0.9305003083) y7) (or (>= (- y7 0.5170314614) y0))))) 
(and (or (<= (+ x0 0.215727458) x8) (or (<= (+ x8 0.0734778133) x0) (or (>= (- y0 0.9305003083) y8) (or (>= (- y8 0.5050821216) y0))))) 
(and (or (<= (+ x0 0.215727458) x9) (or (<= (+ x9 0.4950850306) x0) (or (>= (- y0 0.9305003083) y9) (or (>= (- y9 0.4716500334) y0))))) 
(and (or (<= (+ x0 0.215727458) x10) (or (<= (+ x10 0.2900206357) x0) (or (>= (- y0 0.9305003083) y10) (or (>= (- y10 0.302750122) y0))))) 
(and (or (<= (+ x0 0.215727458) x11) (or (<= (+ x11 0.439564734) x0) (or (>= (- y0 0.9305003083) y11) (or (>= (- y11 0.2557160343) y0))))) 
(and (or (<= (+ x0 0.215727458) x12) (or (<= (+ x12 0.7439121829) x0) (or (>= (- y0 0.9305003083) y12) (or (>= (- y12 0.1385137008) y0))))) 
(and (or (<= (+ x0 0.215727458) x13) (or (<= (+ x13 0.6296116037) x0) (or (>= (- y0 0.9305003083) y13) (or (>= (- y13 0.1195863932) y0))))) 
(and (or (<= (+ x0 0.215727458) x14) (or (<= (+ x14 0.1571083785) x0) (or (>= (- y0 0.9305003083) y14) (or (>= (- y14 0.0201546987) y0))))) 
(and (or (<= (+ x1 0.5314622706) x2) (or (<= (+ x2 0.6366138106) x1) (or (>= (- y1 0.8720427758) y2) (or (>= (- y2 0.8327757909) y1))))) 
(and (or (<= (+ x1 0.5314622706) x3) (or (<= (+ x3 0.022816035) x1) (or (>= (- y1 0.8720427758) y3) (or (>= (- y3 0.7945148373) y1))))) 
(and (or (<= (+ x1 0.5314622706) x4) (or (<= (+ x4 0.9291910729) x1) (or (>= (- y1 0.8720427758) y4) (or (>= (- y4 0.5654122463) y1))))) 
(and (or (<= (+ x1 0.5314622706) x5) (or (<= (+ x5 0.753750229) x1) (or (>= (- y1 0.8720427758) y5) (or (>= (- y5 0.5543142088) y1))))) 
(and (or (<= (+ x1 0.5314622706) x6) (or (<= (+ x6 0.2718207486) x1) (or (>= (- y1 0.8720427758) y6) (or (>= (- y6 0.5420550507) y1))))) 
(and (or (<= (+ x1 0.5314622706) x7) (or (<= (+ x7 0.681559655) x1) (or (>= (- y1 0.8720427758) y7) (or (>= (- y7 0.5170314614) y1))))) 
(and (or (<= (+ x1 0.5314622706) x8) (or (<= (+ x8 0.0734778133) x1) (or (>= (- y1 0.8720427758) y8) (or (>= (- y8 0.5050821216) y1))))) 
(and (or (<= (+ x1 0.5314622706) x9) (or (<= (+ x9 0.4950850306) x1) (or (>= (- y1 0.8720427758) y9) (or (>= (- y9 0.4716500334) y1))))) 
(and (or (<= (+ x1 0.5314622706) x10) (or (<= (+ x10 0.2900206357) x1) (or (>= (- y1 0.8720427758) y10) (or (>= (- y10 0.302750122) y1))))) 
(and (or (<= (+ x1 0.5314622706) x11) (or (<= (+ x11 0.439564734) x1) (or (>= (- y1 0.8720427758) y11) (or (>= (- y11 0.2557160343) y1))))) 
(and (or (<= (+ x1 0.5314622706) x12) (or (<= (+ x12 0.7439121829) x1) (or (>= (- y1 0.8720427758) y12) (or (>= (- y12 0.1385137008) y1))))) 
(and (or (<= (+ x1 0.5314622706) x13) (or (<= (+ x13 0.6296116037) x1) (or (>= (- y1 0.8720427758) y13) (or (>= (- y13 0.1195863932) y1))))) 
(and (or (<= (+ x1 0.5314622706) x14) (or (<= (+ x14 0.1571083785) x1) (or (>= (- y1 0.8720427758) y14) (or (>= (- y14 0.0201546987) y1))))) 
(and (or (<= (+ x2 0.6366138106) x3) (or (<= (+ x3 0.022816035) x2) (or (>= (- y2 0.8327757909) y3) (or (>= (- y3 0.7945148373) y2))))) 
(and (or (<= (+ x2 0.6366138106) x4) (or (<= (+ x4 0.9291910729) x2) (or (>= (- y2 0.8327757909) y4) (or (>= (- y4 0.5654122463) y2))))) 
(and (or (<= (+ x2 0.6366138106) x5) (or (<= (+ x5 0.753750229) x2) (or (>= (- y2 0.8327757909) y5) (or (>= (- y5 0.5543142088) y2))))) 
(and (or (<= (+ x2 0.6366138106) x6) (or (<= (+ x6 0.2718207486) x2) (or (>= (- y2 0.8327757909) y6) (or (>= (- y6 0.5420550507) y2))))) 
(and (or (<= (+ x2 0.6366138106) x7) (or (<= (+ x7 0.681559655) x2) (or (>= (- y2 0.8327757909) y7) (or (>= (- y7 0.5170314614) y2))))) 
(and (or (<= (+ x2 0.6366138106) x8) (or (<= (+ x8 0.0734778133) x2) (or (>= (- y2 0.8327757909) y8) (or (>= (- y8 0.5050821216) y2))))) 
(and (or (<= (+ x2 0.6366138106) x9) (or (<= (+ x9 0.4950850306) x2) (or (>= (- y2 0.8327757909) y9) (or (>= (- y9 0.4716500334) y2))))) 
(and (or (<= (+ x2 0.6366138106) x10) (or (<= (+ x10 0.2900206357) x2) (or (>= (- y2 0.8327757909) y10) (or (>= (- y10 0.302750122) y2))))) 
(and (or (<= (+ x2 0.6366138106) x11) (or (<= (+ x11 0.439564734) x2) (or (>= (- y2 0.8327757909) y11) (or (>= (- y11 0.2557160343) y2))))) 
(and (or (<= (+ x2 0.6366138106) x12) (or (<= (+ x12 0.7439121829) x2) (or (>= (- y2 0.8327757909) y12) (or (>= (- y12 0.1385137008) y2))))) 
(and (or (<= (+ x2 0.6366138106) x13) (or (<= (+ x13 0.6296116037) x2) (or (>= (- y2 0.8327757909) y13) (or (>= (- y13 0.1195863932) y2))))) 
(and (or (<= (+ x2 0.6366138106) x14) (or (<= (+ x14 0.1571083785) x2) (or (>= (- y2 0.8327757909) y14) (or (>= (- y14 0.0201546987) y2))))) 
(and (or (<= (+ x3 0.022816035) x4) (or (<= (+ x4 0.9291910729) x3) (or (>= (- y3 0.7945148373) y4) (or (>= (- y4 0.5654122463) y3))))) 
(and (or (<= (+ x3 0.022816035) x5) (or (<= (+ x5 0.753750229) x3) (or (>= (- y3 0.7945148373) y5) (or (>= (- y5 0.5543142088) y3))))) 
(and (or (<= (+ x3 0.022816035) x6) (or (<= (+ x6 0.2718207486) x3) (or (>= (- y3 0.7945148373) y6) (or (>= (- y6 0.5420550507) y3))))) 
(and (or (<= (+ x3 0.022816035) x7) (or (<= (+ x7 0.681559655) x3) (or (>= (- y3 0.7945148373) y7) (or (>= (- y7 0.5170314614) y3))))) 
(and (or (<= (+ x3 0.022816035) x8) (or (<= (+ x8 0.0734778133) x3) (or (>= (- y3 0.7945148373) y8) (or (>= (- y8 0.5050821216) y3))))) 
(and (or (<= (+ x3 0.022816035) x9) (or (<= (+ x9 0.4950850306) x3) (or (>= (- y3 0.7945148373) y9) (or (>= (- y9 0.4716500334) y3))))) 
(and (or (<= (+ x3 0.022816035) x10) (or (<= (+ x10 0.2900206357) x3) (or (>= (- y3 0.7945148373) y10) (or (>= (- y10 0.302750122) y3))))) 
(and (or (<= (+ x3 0.022816035) x11) (or (<= (+ x11 0.439564734) x3) (or (>= (- y3 0.7945148373) y11) (or (>= (- y11 0.2557160343) y3))))) 
(and (or (<= (+ x3 0.022816035) x12) (or (<= (+ x12 0.7439121829) x3) (or (>= (- y3 0.7945148373) y12) (or (>= (- y12 0.1385137008) y3))))) 
(and (or (<= (+ x3 0.022816035) x13) (or (<= (+ x13 0.6296116037) x3) (or (>= (- y3 0.7945148373) y13) (or (>= (- y13 0.1195863932) y3))))) 
(and (or (<= (+ x3 0.022816035) x14) (or (<= (+ x14 0.1571083785) x3) (or (>= (- y3 0.7945148373) y14) (or (>= (- y14 0.0201546987) y3))))) 
(and (or (<= (+ x4 0.9291910729) x5) (or (<= (+ x5 0.753750229) x4) (or (>= (- y4 0.5654122463) y5) (or (>= (- y5 0.5543142088) y4))))) 
(and (or (<= (+ x4 0.9291910729) x6) (or (<= (+ x6 0.2718207486) x4) (or (>= (- y4 0.5654122463) y6) (or (>= (- y6 0.5420550507) y4))))) 
(and (or (<= (+ x4 0.9291910729) x7) (or (<= (+ x7 0.681559655) x4) (or (>= (- y4 0.5654122463) y7) (or (>= (- y7 0.5170314614) y4))))) 
(and (or (<= (+ x4 0.9291910729) x8) (or (<= (+ x8 0.0734778133) x4) (or (>= (- y4 0.5654122463) y8) (or (>= (- y8 0.5050821216) y4))))) 
(and (or (<= (+ x4 0.9291910729) x9) (or (<= (+ x9 0.4950850306) x4) (or (>= (- y4 0.5654122463) y9) (or (>= (- y9 0.4716500334) y4))))) 
(and (or (<= (+ x4 0.9291910729) x10) (or (<= (+ x10 0.2900206357) x4) (or (>= (- y4 0.5654122463) y10) (or (>= (- y10 0.302750122) y4))))) 
(and (or (<= (+ x4 0.9291910729) x11) (or (<= (+ x11 0.439564734) x4) (or (>= (- y4 0.5654122463) y11) (or (>= (- y11 0.2557160343) y4))))) 
(and (or (<= (+ x4 0.9291910729) x12) (or (<= (+ x12 0.7439121829) x4) (or (>= (- y4 0.5654122463) y12) (or (>= (- y12 0.1385137008) y4))))) 
(and (or (<= (+ x4 0.9291910729) x13) (or (<= (+ x13 0.6296116037) x4) (or (>= (- y4 0.5654122463) y13) (or (>= (- y13 0.1195863932) y4))))) 
(and (or (<= (+ x4 0.9291910729) x14) (or (<= (+ x14 0.1571083785) x4) (or (>= (- y4 0.5654122463) y14) (or (>= (- y14 0.0201546987) y4))))) 
(and (or (<= (+ x5 0.753750229) x6) (or (<= (+ x6 0.2718207486) x5) (or (>= (- y5 0.5543142088) y6) (or (>= (- y6 0.5420550507) y5))))) 
(and (or (<= (+ x5 0.753750229) x7) (or (<= (+ x7 0.681559655) x5) (or (>= (- y5 0.5543142088) y7) (or (>= (- y7 0.5170314614) y5))))) 
(and (or (<= (+ x5 0.753750229) x8) (or (<= (+ x8 0.0734778133) x5) (or (>= (- y5 0.5543142088) y8) (or (>= (- y8 0.5050821216) y5))))) 
(and (or (<= (+ x5 0.753750229) x9) (or (<= (+ x9 0.4950850306) x5) (or (>= (- y5 0.5543142088) y9) (or (>= (- y9 0.4716500334) y5))))) 
(and (or (<= (+ x5 0.753750229) x10) (or (<= (+ x10 0.2900206357) x5) (or (>= (- y5 0.5543142088) y10) (or (>= (- y10 0.302750122) y5))))) 
(and (or (<= (+ x5 0.753750229) x11) (or (<= (+ x11 0.439564734) x5) (or (>= (- y5 0.5543142088) y11) (or (>= (- y11 0.2557160343) y5))))) 
(and (or (<= (+ x5 0.753750229) x12) (or (<= (+ x12 0.7439121829) x5) (or (>= (- y5 0.5543142088) y12) (or (>= (- y12 0.1385137008) y5))))) 
(and (or (<= (+ x5 0.753750229) x13) (or (<= (+ x13 0.6296116037) x5) (or (>= (- y5 0.5543142088) y13) (or (>= (- y13 0.1195863932) y5))))) 
(and (or (<= (+ x5 0.753750229) x14) (or (<= (+ x14 0.1571083785) x5) (or (>= (- y5 0.5543142088) y14) (or (>= (- y14 0.0201546987) y5))))) 
(and (or (<= (+ x6 0.2718207486) x7) (or (<= (+ x7 0.681559655) x6) (or (>= (- y6 0.5420550507) y7) (or (>= (- y7 0.5170314614) y6))))) 
(and (or (<= (+ x6 0.2718207486) x8) (or (<= (+ x8 0.0734778133) x6) (or (>= (- y6 0.5420550507) y8) (or (>= (- y8 0.5050821216) y6))))) 
(and (or (<= (+ x6 0.2718207486) x9) (or (<= (+ x9 0.4950850306) x6) (or (>= (- y6 0.5420550507) y9) (or (>= (- y9 0.4716500334) y6))))) 
(and (or (<= (+ x6 0.2718207486) x10) (or (<= (+ x10 0.2900206357) x6) (or (>= (- y6 0.5420550507) y10) (or (>= (- y10 0.302750122) y6))))) 
(and (or (<= (+ x6 0.2718207486) x11) (or (<= (+ x11 0.439564734) x6) (or (>= (- y6 0.5420550507) y11) (or (>= (- y11 0.2557160343) y6))))) 
(and (or (<= (+ x6 0.2718207486) x12) (or (<= (+ x12 0.7439121829) x6) (or (>= (- y6 0.5420550507) y12) (or (>= (- y12 0.1385137008) y6))))) 
(and (or (<= (+ x6 0.2718207486) x13) (or (<= (+ x13 0.6296116037) x6) (or (>= (- y6 0.5420550507) y13) (or (>= (- y13 0.1195863932) y6))))) 
(and (or (<= (+ x6 0.2718207486) x14) (or (<= (+ x14 0.1571083785) x6) (or (>= (- y6 0.5420550507) y14) (or (>= (- y14 0.0201546987) y6))))) 
(and (or (<= (+ x7 0.681559655) x8) (or (<= (+ x8 0.0734778133) x7) (or (>= (- y7 0.5170314614) y8) (or (>= (- y8 0.5050821216) y7))))) 
(and (or (<= (+ x7 0.681559655) x9) (or (<= (+ x9 0.4950850306) x7) (or (>= (- y7 0.5170314614) y9) (or (>= (- y9 0.4716500334) y7))))) 
(and (or (<= (+ x7 0.681559655) x10) (or (<= (+ x10 0.2900206357) x7) (or (>= (- y7 0.5170314614) y10) (or (>= (- y10 0.302750122) y7))))) 
(and (or (<= (+ x7 0.681559655) x11) (or (<= (+ x11 0.439564734) x7) (or (>= (- y7 0.5170314614) y11) (or (>= (- y11 0.2557160343) y7))))) 
(and (or (<= (+ x7 0.681559655) x12) (or (<= (+ x12 0.7439121829) x7) (or (>= (- y7 0.5170314614) y12) (or (>= (- y12 0.1385137008) y7))))) 
(and (or (<= (+ x7 0.681559655) x13) (or (<= (+ x13 0.6296116037) x7) (or (>= (- y7 0.5170314614) y13) (or (>= (- y13 0.1195863932) y7))))) 
(and (or (<= (+ x7 0.681559655) x14) (or (<= (+ x14 0.1571083785) x7) (or (>= (- y7 0.5170314614) y14) (or (>= (- y14 0.0201546987) y7))))) 
(and (or (<= (+ x8 0.0734778133) x9) (or (<= (+ x9 0.4950850306) x8) (or (>= (- y8 0.5050821216) y9) (or (>= (- y9 0.4716500334) y8))))) 
(and (or (<= (+ x8 0.0734778133) x10) (or (<= (+ x10 0.2900206357) x8) (or (>= (- y8 0.5050821216) y10) (or (>= (- y10 0.302750122) y8))))) 
(and (or (<= (+ x8 0.0734778133) x11) (or (<= (+ x11 0.439564734) x8) (or (>= (- y8 0.5050821216) y11) (or (>= (- y11 0.2557160343) y8))))) 
(and (or (<= (+ x8 0.0734778133) x12) (or (<= (+ x12 0.7439121829) x8) (or (>= (- y8 0.5050821216) y12) (or (>= (- y12 0.1385137008) y8))))) 
(and (or (<= (+ x8 0.0734778133) x13) (or (<= (+ x13 0.6296116037) x8) (or (>= (- y8 0.5050821216) y13) (or (>= (- y13 0.1195863932) y8))))) 
(and (or (<= (+ x8 0.0734778133) x14) (or (<= (+ x14 0.1571083785) x8) (or (>= (- y8 0.5050821216) y14) (or (>= (- y14 0.0201546987) y8))))) 
(and (or (<= (+ x9 0.4950850306) x10) (or (<= (+ x10 0.2900206357) x9) (or (>= (- y9 0.4716500334) y10) (or (>= (- y10 0.302750122) y9))))) 
(and (or (<= (+ x9 0.4950850306) x11) (or (<= (+ x11 0.439564734) x9) (or (>= (- y9 0.4716500334) y11) (or (>= (- y11 0.2557160343) y9))))) 
(and (or (<= (+ x9 0.4950850306) x12) (or (<= (+ x12 0.7439121829) x9) (or (>= (- y9 0.4716500334) y12) (or (>= (- y12 0.1385137008) y9))))) 
(and (or (<= (+ x9 0.4950850306) x13) (or (<= (+ x13 0.6296116037) x9) (or (>= (- y9 0.4716500334) y13) (or (>= (- y13 0.1195863932) y9))))) 
(and (or (<= (+ x9 0.4950850306) x14) (or (<= (+ x14 0.1571083785) x9) (or (>= (- y9 0.4716500334) y14) (or (>= (- y14 0.0201546987) y9))))) 
(and (or (<= (+ x10 0.2900206357) x11) (or (<= (+ x11 0.439564734) x10) (or (>= (- y10 0.302750122) y11) (or (>= (- y11 0.2557160343) y10))))) 
(and (or (<= (+ x10 0.2900206357) x12) (or (<= (+ x12 0.7439121829) x10) (or (>= (- y10 0.302750122) y12) (or (>= (- y12 0.1385137008) y10))))) 
(and (or (<= (+ x10 0.2900206357) x13) (or (<= (+ x13 0.6296116037) x10) (or (>= (- y10 0.302750122) y13) (or (>= (- y13 0.1195863932) y10))))) 
(and (or (<= (+ x10 0.2900206357) x14) (or (<= (+ x14 0.1571083785) x10) (or (>= (- y10 0.302750122) y14) (or (>= (- y14 0.0201546987) y10))))) 
(and (or (<= (+ x11 0.439564734) x12) (or (<= (+ x12 0.7439121829) x11) (or (>= (- y11 0.2557160343) y12) (or (>= (- y12 0.1385137008) y11))))) 
(and (or (<= (+ x11 0.439564734) x13) (or (<= (+ x13 0.6296116037) x11) (or (>= (- y11 0.2557160343) y13) (or (>= (- y13 0.1195863932) y11))))) 
(and (or (<= (+ x11 0.439564734) x14) (or (<= (+ x14 0.1571083785) x11) (or (>= (- y11 0.2557160343) y14) (or (>= (- y14 0.0201546987) y11))))) 
(and (or (<= (+ x12 0.7439121829) x13) (or (<= (+ x13 0.6296116037) x12) (or (>= (- y12 0.1385137008) y13) (or (>= (- y13 0.1195863932) y12))))) 
(and (or (<= (+ x12 0.7439121829) x14) (or (<= (+ x14 0.1571083785) x12) (or (>= (- y12 0.1385137008) y14) (or (>= (- y14 0.0201546987) y12))))) 
(and (or (<= (+ x13 0.6296116037) x14) (or (<= (+ x14 0.1571083785) x13) (or (>= (- y13 0.1195863932) y14) (or (>= (- y14 0.0201546987) y13))))) )))))))))))))))))))))))))))))))))))))))))))))))))))))))))))))))))))))))))))))))))))))))))))))))))))))))))))))))))))))))))))))))))))))))))))))))))))))))))))))))))))))))))))))))))))))))))))))))))))))))))))))))))))))))
(minimize c)
(check-sat)
(get-objectives)
(exit)
